objective value:                                 -699
t_x2                                                1 	(obj:-100)
t_x12                                               1 	(obj:-100)
t_x41                                               1 	(obj:-100)
t_x43                                               1 	(obj:-100)
t_x85                                               1 	(obj:-100)
t_x87                                               1 	(obj:-100)
t_x94                                               1 	(obj:-100)
t_x130                                              1 	(obj:-100)
t_y43_136                                           1 	(obj:1)
t_y26_94                                            1 	(obj:1)
t_y41_57                                            1 	(obj:1)
t_y34_85                                            1 	(obj:1)
t_y43_98                                            1 	(obj:1)
t_y39_85                                            1 	(obj:1)
t_y107_130                                          1 	(obj:1)
t_y87_157                                           1 	(obj:1)
t_y8_94                                             1 	(obj:1)
t_y96_130                                           1 	(obj:1)
t_y40_130                                           1 	(obj:1)
t_y74_85                                            1 	(obj:1)
t_y6_87                                             1 	(obj:1)
t_y87_118                                           1 	(obj:1)
t_y12_93                                            1 	(obj:1)
t_y84_130                                           1 	(obj:1)
t_y85_131                                           1 	(obj:1)
t_y2_16                                             1 	(obj:1)
t_y49_130                                           1 	(obj:1)
t_y2_36                                             1 	(obj:1)
t_y12_84                                            1 	(obj:1)
t_y50_94                                            1 	(obj:1)
t_y55_94                                            1 	(obj:1)
t_y41_102                                           1 	(obj:1)
t_y12_83                                            1 	(obj:1)
t_y12_56                                            1 	(obj:1)
t_y76_130                                           1 	(obj:1)
t_y41_111                                           1 	(obj:1)
t_y1_43                                             1 	(obj:1)
t_y85_158                                           1 	(obj:1)
t_y12_107                                           1 	(obj:1)
t_y43_155                                           1 	(obj:1)
t_y130_135                                          1 	(obj:1)
t_y53_85                                            1 	(obj:1)
t_y36_130                                           1 	(obj:1)
t_y41_99                                            1 	(obj:1)
t_y2_34                                             1 	(obj:1)
t_y2_92                                             1 	(obj:1)
t_y41_47                                            1 	(obj:1)
t_y53_94                                            1 	(obj:1)
t_y9_85                                             1 	(obj:1)
t_y65_85                                            1 	(obj:1)
t_y2_133                                            1 	(obj:1)
t_y81_87                                            1 	(obj:1)
t_y43_53                                            1 	(obj:1)
t_y12_128                                           1 	(obj:1)
t_y87_130                                           1 	(obj:1)
t_y12_101                                           1 	(obj:1)
t_y21_130                                           1 	(obj:1)
t_y17_85                                            1 	(obj:1)
t_y87_155                                           1 	(obj:1)
t_y87_126                                           1 	(obj:1)
t_y41_45                                            1 	(obj:1)
t_y41_148                                           1 	(obj:1)
t_y87_142                                           1 	(obj:1)
t_y130_151                                          1 	(obj:1)
t_y50_85                                            1 	(obj:1)
t_y63_85                                            1 	(obj:1)
t_y38_41                                            1 	(obj:1)
t_y23_94                                            1 	(obj:1)
t_y43_123                                           1 	(obj:1)
t_y78_94                                            1 	(obj:1)
t_y43_68                                            1 	(obj:1)
t_y85_117                                           1 	(obj:1)
t_y23_43                                            1 	(obj:1)
t_y122_130                                          1 	(obj:1)
t_y42_85                                            1 	(obj:1)
t_y41_103                                           1 	(obj:1)
t_y24_41                                            1 	(obj:1)
t_y34_94                                            1 	(obj:1)
t_y2_134                                            1 	(obj:1)
t_y93_94                                            1 	(obj:1)
t_y2_57                                             1 	(obj:1)
t_y43_141                                           1 	(obj:1)
t_y18_85                                            1 	(obj:1)
t_y41_123                                           1 	(obj:1)
t_y114_130                                          1 	(obj:1)
t_y2_42                                             1 	(obj:1)
t_y1_12                                             1 	(obj:1)
t_y12_154                                           1 	(obj:1)
t_y45_94                                            1 	(obj:1)
t_y2_37                                             1 	(obj:1)
t_y43_145                                           1 	(obj:1)
t_y94_148                                           1 	(obj:1)
t_y29_85                                            1 	(obj:1)
t_y87_141                                           1 	(obj:1)
t_y60_87                                            1 	(obj:1)
t_y25_85                                            1 	(obj:1)
t_y43_143                                           1 	(obj:1)
t_y12_135                                           1 	(obj:1)
t_y12_100                                           1 	(obj:1)
t_y2_14                                             1 	(obj:1)
t_y87_92                                            1 	(obj:1)
t_y37_130                                           1 	(obj:1)
t_y12_99                                            1 	(obj:1)
t_y87_127                                           1 	(obj:1)
t_y2_35                                             1 	(obj:1)
t_y12_87                                            1 	(obj:1)
t_y69_130                                           1 	(obj:1)
t_y12_26                                            1 	(obj:1)
t_y12_147                                           1 	(obj:1)
